results/refactoring attempts/res_49_4.smt2
(declare-var a Int)
(declare-var b Int)
(declare-var c Int)
(declare-var d Int)

(declare-rel inv (Int Int))
(declare-var x0 Int)
(declare-var x1 Int)
(declare-var y0 Int)
(declare-var y1 Int)

(declare-rel fail ())

(rule (=> (and (= x0 0) (= y0 0))
          (inv x0 y0)))

(rule (=> (and (inv x0 y0)
               (= x1 (+ x0 1))
               (= y1 (ite (>= x0 a)
                         (ite (>= x0 b) (- y0 2) (+ y0 1))
                         (ite (>= x0 c) (+ y0 1) (- y0 2)))))
          (inv x1 y1)))

(rule (=> (and (inv x0 y0)
               (= x0 d)
               (not (= y0 0)))
          fail))

(query fail)
